peakDumbCharging = 3700; 
Machine = anon_enum(16); 
machineSpeed = [3700,3700,3700,3700,3700,3700,3700,3700,3700,3700,3700,3700,3700,3700,3700,3700]; 
machineLoad = [3700,3700,3700,3700,3700,3700,3700,3700,3700,3700,3700,3700,3700,3700,3700,3700]; 
Car = anon_enum(3); 
demandCar = [5600,4080,19280]; 
arrivalCar = [74,54,46]; 
departureCar = [77,57,52]; 
